100
30
31
14
8
2
9
16
12
16
1
31
30
31
16
10
31
20
10
15
30
32
28
8
12
18
31
28
10
27
7
18
12
3
29
31
19
32
25
10
13
17
4
11
17
20
28
10
3
32
7
22
2
1
1
31
2
6
31
30
31
23
21
31
5
24
15
14
2
27
5
2
24
3
11
31
19
18
2
17
18
12
12
8
6
8
16
32
21
9
3
19
32
19
11
25
20
11
5
1
5
1